CMD:
./solvers/bin/cadical --plain --no-reduce -t 1600 ./data/cnfs//zipcpu-zipmmu-p09/zipcpu-zipmmu-p09.7.cnf

c --- [ banner ] -------------------------------------------------------------
c 
c CaDiCaL SAT Solver
c Copyright (c) 2016-2024
c A. Biere, M. Fleury, N. Froleyks, K. Fazekas, F. Pollitt, T. Faller
c JKU Linz, University of Freiburg, TU Wien
c 
c Version 2.1.3 5296d3d2a9bf48c154ab2acb5e44625776d821bf
c g++ (Gentoo 12.3.1_p20230526 p2) 12.3.1 20230526 -Wall -Wextra -O3 -DNDEBUG
c Sat Aug 9 07:26:21 PDT 2025 Linux cedar2.int.cedar.computecanada.ca 5.14.0-362.24.2.el9_3.x86_64 x86_64
c 
c --- [ limit ] --------------------------------------------------------------
c 
c setting time limit to 1600 seconds real time (due to '-t 1600')
c 
c --- [ parsing input ] ------------------------------------------------------
c 
c reading DIMACS file from './data/cnfs//zipcpu-zipmmu-p09/zipcpu-zipmmu-p09.7.cnf'
c opening file to read './data/cnfs//zipcpu-zipmmu-p09/zipcpu-zipmmu-p09.7.cnf'
c found 'p cnf 40268 116045' header
c parsed 116045 clauses in 0.02 seconds process time
c 
c --- [ options ] ------------------------------------------------------------
c 
c   --compact=false                (different from default 'true')
c   --decompose=false              (different from default 'true')
c   --deduplicate=false            (different from default 'true')
c   --elim=false                   (different from default 'true')
c   --probe=false                  (different from default 'true')
c   --reduce=false                 (different from default 'true')
c   --subsume=false                (different from default 'true')
c   --ternary=false                (different from default 'true')
c   --transred=false               (different from default 'true')
c   --vivify=false                 (different from default 'true')
c 
c --- [ solving ] ------------------------------------------------------------
c 
c time measured in process time since initialization
c 
c  seconds  reductions  redundant  irredundant
c         MB    restarts       trail       variables
c          level   conflicts       glue         remaining
c 
c *  0.02 21  0 0   0    0    0  0% 0 109368 36237 90%
c {  0.03 22  0 0   0    0    0  0% 0 109368 36237 90%
c i  0.03 22 80 0   0   19   18 18% 2 109368 36229 90%
c i  0.03 22 66 0   0   55   48 19% 3 109368 36228 90%
c i  0.03 22 66 0   0   56   48 19% 3 109368 36227 90%
c i  0.03 22 65 0   0   57   48 19% 3 109368 36224 90%
c i  0.03 22 65 0   0   58   48 19% 3 109368 36215 90%
c i  0.03 22 62 0   0   63   49 19% 3 109368 36207 90%
c i  0.04 22 165 0   2  152   99 32% 3 109368 36203 90%
c i  0.04 22 164 0   2  153   99 32% 3 109368 35088 87%
c i  0.04 22 163 0   2  154   99 32% 3 109368 35013 87%
c i  0.04 22 161 0   2  155   99 32% 3 109368 34337 85%
c i  0.04 22 160 0   2  156   99 32% 3 109368 34111 85%
c i  0.04 22 93 0  11  290  183 27% 2 109368 33990 84%
c i  0.04 22 92 0  11  292  184 27% 2 109368 33989 84%
c i  0.04 22 91 0  11  294  185 27% 2 109368 33987 84%
c i  0.04 22 83 0  11  322  199 26% 2 109368 33731 84%
c i  0.04 22 83 0  11  324  200 26% 2 109368 33728 84%
c i  0.04 22 82 0  11  326  201 26% 2 109368 33725 84%
c i  0.04 22 81 0  11  328  202 26% 2 109368 33722 84%
c 
c  seconds  reductions  redundant  irredundant
c         MB    restarts       trail       variables
c          level   conflicts       glue         remaining
c 
c i  0.04 22 81 0  11  330  203 26% 2 109368 33719 84%
c i  0.04 22 80 0  11  332  204 26% 2 109368 33716 84%
c i  0.04 22 80 0  11  334  205 26% 2 109368 33713 84%
c i  0.04 22 79 0  11  336  206 26% 2 109368 33710 84%
c i  0.04 22 79 0  11  338  207 26% 2 109368 33707 84%
c i  0.04 22 78 0  11  340  208 26% 2 109368 33704 84%
c i  0.04 22 78 0  11  342  209 26% 2 109368 33701 84%
c i  0.04 22 77 0  11  344  210 25% 2 109368 33698 84%
c i  0.04 22 77 0  11  346  211 25% 2 109368 33695 84%
c i  0.04 22 76 0  11  348  212 25% 2 109368 33678 84%
c }  0.04 22 76 0  11  350  212 25% 2 109368 33624 84%
c 0  0.04 22 76 0  11  350  212 25% 2 109368 33624 84%
c 
c --- [ result ] -------------------------------------------------------------
c 
s UNSATISFIABLE
c 
c --- [ run-time profiling ] -------------------------------------------------
c 
c process time taken by individual solving procedures
c (percentage relative to process time for solving)
c 
c         0.02  110.18% parse
c         0.02   99.38% search
c         0.01   63.80% unstable
c         0.01   35.52% lucky
c         0.00    0.00% simplify
c   =================================
c         0.02   47.11% solve
c 
c last line shows process time for solving
c (percentage relative to total process time)
c 
c --- [ statistics ] ---------------------------------------------------------
c 
c chronological:               200        57.14 %  of conflicts
c conflicts:                   350     18757.70    per second
c decisions:                  2063    110563.27    per second
c fixed:                      6548        16.26 %  of all variables
c learned:                     286        81.71 %  per conflict
c learned_lits:               1603       100.00 %  learned literals
c minimized:                     0         0.00 %  learned literals
c shrunken:                    341        21.27 %  learned literals
c minishrunken:                 61         3.81 %  learned literals
c otfs:                          3         0.86 %  of conflict
c propagations:             258726        13.87 M  per second
c restarts:                     11        31.82    interval
c subsumed:                     45         0.04 %  of all clauses
c strengthened:                  3         0.00 %  of all clauses
c 
c seconds are measured in process time for solving
c 
c --- [ resources ] ----------------------------------------------------------
c 
c total process time since initialization:         0.04    seconds
c total real time since initialization:            0.04    seconds
c maximum resident set size of process:           29.31    MB
c 
c --- [ shutting down ] ------------------------------------------------------
c 
c exit 20
